38
1 0 7
2 0 2
2 1 7
3 0 5
3 1 10
3 2 5
4 0 9
4 1 1
4 2 3
4 3 8
5 0 11
5 1 3
5 2 12
5 3 11
5 4 3
6 0 12
6 1 2
6 2 3
6 3 6
6 4 8
6 5 7
7 0 5
7 1 10
7 2 9
7 3 3
7 4 12
7 5 8
7 6 7
8 0 8
8 1 10
8 2 3
8 3 3
8 4 5
8 5 1
8 6 8
8 7 2
9 0 9
9 1 10
9 2 11
9 3 2
9 4 5
9 5 7
9 6 1
9 7 11
9 8 12
10 0 1
10 1 11
10 2 5
10 3 7
10 4 6
10 5 10
10 6 4
10 7 11
10 8 1
10 9 2
11 0 4
11 1 3
11 2 4
11 3 3
11 4 5
11 5 4
11 6 5
11 7 1
11 8 12
11 9 10
11 10 1
12 0 5
12 1 7
12 2 7
12 3 3
12 4 1
12 5 9
12 6 8
12 7 5
12 8 4
12 9 3
12 10 9
12 11 3
13 0 5
13 1 4
13 2 5
13 3 8
13 4 10
13 5 4
13 6 7
13 7 11
13 8 10
13 9 10
13 10 6
13 11 7
13 12 11
14 0 9
14 1 10
14 2 10
14 3 7
14 4 9
14 5 9
14 6 8
14 7 8
14 8 6
14 9 9
14 10 6
14 11 2
14 12 10
14 13 10
15 0 4
15 1 7
15 2 4
15 3 6
15 4 5
15 5 4
15 6 7
15 7 5
15 8 8
15 9 4
15 10 11
15 11 8
15 12 9
15 13 2
15 14 4
16 0 11
16 1 5
16 2 1
16 3 12
16 4 4
16 5 5
16 6 4
16 7 4
16 8 12
16 9 8
16 10 7
16 11 9
16 12 5
16 13 9
16 14 12
16 15 12
17 0 10
17 1 2
17 2 12
17 3 2
17 4 1
17 5 9
17 6 4
17 7 9
17 8 1
17 9 1
17 10 1
17 11 8
17 12 6
17 13 5
17 14 12
17 15 8
17 16 5
18 0 8
18 1 2
18 2 3
18 3 5
18 4 7
18 5 10
18 6 6
18 7 8
18 8 6
18 9 2
18 10 5
18 11 9
18 12 8
18 13 5
18 14 11
18 15 1
18 16 7
18 17 8
19 0 1
19 1 9
19 2 12
19 3 8
19 4 2
19 5 12
19 6 11
19 7 9
19 8 3
19 9 3
19 10 12
19 11 1
19 12 6
19 13 1
19 14 8
19 15 1
19 16 6
19 17 12
19 18 6
20 0 1
20 1 12
20 2 4
20 3 4
20 4 11
20 5 11
20 6 10
20 7 12
20 8 1
20 9 12
20 10 4
20 11 4
20 12 11
20 13 6
20 14 5
20 15 3
20 16 11
20 17 5
20 18 12
20 19 4
21 0 3
21 1 9
21 2 11
21 3 10
21 4 2
21 5 8
21 6 7
21 7 5
21 8 3
21 9 6
21 10 8
21 11 8
21 12 2
21 13 6
21 14 11
21 15 3
21 16 9
21 17 1
21 18 12
21 19 1
21 20 5
22 0 11
22 1 3
22 2 4
22 3 7
22 4 10
22 5 2
22 6 4
22 7 7
22 8 12
22 9 3
22 10 2
22 11 8
22 12 11
22 13 9
22 14 8
22 15 2
22 16 3
22 17 9
22 18 6
22 19 12
22 20 4
22 21 7
23 0 6
23 1 11
23 2 1
23 3 3
23 4 6
23 5 3
23 6 7
23 7 1
23 8 5
23 9 12
23 10 7
23 11 1
23 12 10
23 13 10
23 14 9
23 15 10
23 16 12
23 17 10
23 18 12
23 19 4
23 20 8
23 21 8
23 22 2
24 0 11
24 1 2
24 2 2
24 3 7
24 4 5
24 5 7
24 6 1
24 7 4
24 8 12
24 9 4
24 10 8
24 11 2
24 12 7
24 13 3
24 14 7
24 15 7
24 16 5
24 17 10
24 18 1
24 19 4
24 20 4
24 21 8
24 22 7
24 23 1
25 0 8
25 1 1
25 2 1
25 3 9
25 4 7
25 5 11
25 6 5
25 7 9
25 8 4
25 9 5
25 10 8
25 11 6
25 12 12
25 13 5
25 14 11
25 15 12
25 16 10
25 17 8
25 18 12
25 19 10
25 20 9
25 21 3
25 22 3
25 23 7
25 24 11
26 0 4
26 1 9
26 2 3
26 3 6
26 4 1
26 5 10
26 6 4
26 7 2
26 8 4
26 9 9
26 10 6
26 11 1
26 12 1
26 13 11
26 14 1
26 15 12
26 16 10
26 17 11
26 18 9
26 19 1
26 20 10
26 21 4
26 22 9
26 23 7
26 24 12
26 25 12
27 0 9
27 1 2
27 2 9
27 3 5
27 4 11
27 5 6
27 6 9
27 7 12
27 8 1
27 9 6
27 10 4
27 11 3
27 12 8
27 13 5
27 14 12
27 15 9
27 16 1
27 17 12
27 18 2
27 19 12
27 20 8
27 21 11
27 22 9
27 23 11
27 24 9
27 25 1
27 26 1
28 0 3
28 1 6
28 2 10
28 3 8
28 4 3
28 5 7
28 6 10
28 7 6
28 8 9
28 9 4
28 10 1
28 11 4
28 12 8
28 13 5
28 14 7
28 15 8
28 16 11
28 17 12
28 18 12
28 19 11
28 20 4
28 21 4
28 22 6
28 23 8
28 24 9
28 25 6
28 26 10
28 27 9
29 0 3
29 1 11
29 2 3
29 3 12
29 4 7
29 5 2
29 6 11
29 7 12
29 8 6
29 9 12
29 10 2
29 11 5
29 12 2
29 13 11
29 14 7
29 15 4
29 16 4
29 17 1
29 18 9
29 19 4
29 20 12
29 21 3
29 22 8
29 23 4
29 24 6
29 25 4
29 26 1
29 27 5
29 28 3
30 0 11
30 1 6
30 2 11
30 3 1
30 4 10
30 5 7
30 6 3
30 7 12
30 8 9
30 9 5
30 10 8
30 11 2
30 12 10
30 13 4
30 14 12
30 15 5
30 16 5
30 17 5
30 18 11
30 19 5
30 20 1
30 21 7
30 22 10
30 23 5
30 24 5
30 25 10
30 26 5
30 27 12
30 28 4
30 29 8
31 0 8
31 1 3
31 2 1
31 3 8
31 4 12
31 5 4
31 6 5
31 7 5
31 8 1
31 9 1
31 10 4
31 11 3
31 12 7
31 13 2
31 14 3
31 15 10
31 16 2
31 17 8
31 18 5
31 19 5
31 20 7
31 21 5
31 22 9
31 23 10
31 24 2
31 25 5
31 26 9
31 27 2
31 28 4
31 29 8
31 30 11
32 0 12
32 1 8
32 2 8
32 3 11
32 4 9
32 5 3
32 6 8
32 7 2
32 8 3
32 9 11
32 10 4
32 11 6
32 12 10
32 13 3
32 14 1
32 15 1
32 16 8
32 17 1
32 18 1
32 19 3
32 20 12
32 21 10
32 22 11
32 23 1
32 24 3
32 25 12
32 26 5
32 27 2
32 28 8
32 29 2
32 30 2
32 31 6
33 0 2
33 1 3
33 2 6
33 3 2
33 4 1
33 5 12
33 6 11
33 7 11
33 8 10
33 9 4
33 10 2
33 11 4
33 12 12
33 13 12
33 14 9
33 15 7
33 16 5
33 17 4
33 18 9
33 19 4
33 20 5
33 21 12
33 22 12
33 23 8
33 24 11
33 25 8
33 26 5
33 27 11
33 28 9
33 29 5
33 30 11
33 31 1
33 32 6
34 0 6
34 1 5
34 2 12
34 3 4
34 4 7
34 5 12
34 6 8
34 7 10
34 8 2
34 9 8
34 10 4
34 11 8
34 12 8
34 13 11
34 14 12
34 15 4
34 16 1
34 17 4
34 18 3
34 19 11
34 20 9
34 21 4
34 22 12
34 23 12
34 24 3
34 25 8
34 26 2
34 27 6
34 28 1
34 29 3
34 30 6
34 31 2
34 32 7
34 33 1
35 0 9
35 1 2
35 2 8
35 3 4
35 4 12
35 5 4
35 6 10
35 7 11
35 8 3
35 9 5
35 10 5
35 11 5
35 12 7
35 13 9
35 14 4
35 15 2
35 16 2
35 17 8
35 18 10
35 19 12
35 20 7
35 21 7
35 22 2
35 23 8
35 24 10
35 25 8
35 26 6
35 27 6
35 28 9
35 29 10
35 30 1
35 31 5
35 32 2
35 33 9
35 34 12
36 0 7
36 1 9
36 2 6
36 3 4
36 4 12
36 5 7
36 6 4
36 7 5
36 8 1
36 9 6
36 10 7
36 11 12
36 12 10
36 13 7
36 14 6
36 15 7
36 16 2
36 17 2
36 18 4
36 19 9
36 20 5
36 21 1
36 22 11
36 23 10
36 24 6
36 25 1
36 26 3
36 27 11
36 28 9
36 29 6
36 30 2
36 31 1
36 32 5
36 33 12
36 34 6
36 35 5
37 0 4
37 1 12
37 2 1
37 3 1
37 4 7
37 5 6
37 6 8
37 7 12
37 8 11
37 9 9
37 10 1
37 11 10
37 12 9
37 13 8
37 14 10
37 15 1
37 16 3
37 17 3
37 18 2
37 19 4
37 20 1
37 21 12
37 22 11
37 23 12
37 24 6
37 25 1
37 26 7
37 27 1
37 28 11
37 29 4
37 30 8
37 31 9
37 32 7
37 33 5
37 34 6
37 35 6
37 36 10
